Route #1: 4 34 46
Route #2: 26
Route #3: 17 40 12
Route #4: 6 51 16 3 44
Route #5: 7 35 8 52 27
Route #6: 9 39 32
Route #7: 47 48 30 29
Route #8: 2 28 22 42
Route #9: 45 5 37 15 57
Route #10: 58 10 38
Route #11: 33 1 43 41
Route #12: 19 14 53 13
Route #13: 21 36 20 54
Route #14: 23 56 49 24 18
Route #15: 50 25 55 31
Route #16: 11 59
cost: 1081.5463523978299
